Route #1: 2 4 18 26 47 24 16 11
Route #2: 34 48 40 7 25 9 33
Route #3: 36 43 49 5
Route #4: 32 28 29 19
Route #5: 8 17 42 21 1 35
Route #6: 3 13 10 23 46 38 22
Route #7: 15 39 45 41 14
Route #8: 6 31 30 20 27 12 37 44
Cost 1341